n_res = 4;
rc = [ 33, 23, 24, 27 ];
n_tasks = 30;
d = [ 7, 9, 1, 1, 9, 8, 3, 1, 10, 9, 10, 2, 1, 5, 3, 9, 8, 4, 10, 5, 3, 4, 5, 7, 5, 2, 2, 2, 6, 6 ];
rr = [| 6, 5, 4, 5, 8, 7, 7, 1, 7, 6, 5, 1, 4, 3, 0, 9, 2, 0, 9, 4, 0, 0, 7, 0, 10, 1, 8, 5, 0, 7
      | 5, 4, 7, 2, 8, 0, 7, 0, 2, 8, 4, 9, 7, 0, 0, 9, 2, 1, 0, 4, 4, 4, 7, 4, 3, 0, 0, 0, 7, 1
      | 4, 6, 1, 0, 4, 7, 8, 6, 0, 8, 2, 1, 0, 4, 0, 5, 0, 9, 8, 8, 0, 5, 6, 6, 9, 8, 8, 0, 0, 0
      | 0, 5, 4, 10, 5, 0, 5, 4, 0, 6, 2, 10, 7, 0, 7, 10, 10, 0, 5, 3, 0, 9, 1, 7, 9, 9, 9, 4, 8, 8 |];
suc = [ { 7, 9, 12 },
       { 4, 8, 18 },
       { 5, 15, 16 },
       { 9, 17, 30 },
       { 6, 21 },
       { 27 },
       { 10, 11 },
       { 13, 26 },
       { 29 },
       { 23 },
       { 14, 20 },
       { 16 },
       { 19 },
       { 29 },
       { 24 },
       { 20 },
       { 28 },
       { 19, 22, 23 },
       { 20 },
       { 27 },
       { 25 },
       { 25 },
       { 24, 28 },
       { 29 },
       { 27 },
       { 30 },
       { 30 },
       {  },
       {  },
       {  } ];
